(set-info :smt-lib-version 2.6)
(set-logic LRA)
(set-info :source |
   Monniaux, David; Quantifier Elimination by Lazy Model Enumeration, CAV 2010
|)
(set-info :category "random")
; ./Mjollnir_examples/B4/formula_012.m
(set-info :status unsat)
(assert
 (exists ((|v11:0| Real) )(exists ((|v10:1| Real) )(exists ((|v9:2| Real) )(exists ((|v8:3| Real) )(forall ((|v7:4| Real) )(forall ((|v6:5| Real) )(forall ((|v5:6| Real) )(forall ((|v4:7| Real) )(exists ((|v3:8| Real) )(exists ((|v2:9| Real) )(exists ((|v1:10| Real) )(exists ((|v0:11| Real) )(let ((?x112 12))
(let ((?x415 (* ?x112 |v10:1|)))
(let ((?x78 (- 18)))
(let ((?x79 (* ?x78 |v6:5|)))
(let (($x607 (<= (+ (+ (+ (* (- 17) |v3:8|) (* ?x78 |v0:11|)) ?x79) ?x415) 1)))
(let ((?x24 17))
(let ((?x156 (- 12)))
(let ((?x213 (* ?x156 |v0:11|)))
(let ((?x599 (+ (+ (* 5 |v1:10|) (* (- 4) |v8:3|)) (* (- 15) |v11:0|))))
(let ((?x228 (- 8)))
(let ((?x590 (+ (+ (* (- 9) |v3:8|) (* 15 |v3:8|)) (* ?x78 |v1:10|))))
(let ((?x40 (- 3)))
(let ((?x103 (- 7)))
(let ((?x509 (* ?x103 |v1:10|)))
(let ((?x57 (- 17)))
(let ((?x87 (* ?x57 |v7:4|)))
(let ((?x585 (+ (+ (+ (* 8 |v7:4|) (* 14 |v2:9|)) ?x87) ?x509)))
(let (($x609 (and (and (<= ?x585 ?x40) (<= (+ ?x590 (* (- 13) |v0:11|)) ?x228)) (and (<= (+ ?x599 ?x213) ?x24) $x607))))
(let ((?x260 (* ?x40 |v3:8|)))
(let ((?x462 (* ?x228 |v4:7|)))
(let ((?x577 (+ (+ (+ (* (- 20) |v1:10|) (* (- 14) |v1:10|)) ?x462) ?x260)))
(let ((?x341 (- 6)))
(let ((?x570 (+ (+ (* 10 |v11:0|) (* 8 |v9:2|)) (* ?x24 |v5:6|))))
(let ((?x235 (- 11)))
(let ((?x46 16))
(let ((?x253 (* ?x46 |v0:11|)))
(let (($x564 (<= (+ (+ (+ (* 15 |v9:2|) (* ?x40 |v10:1|)) ?x253) ?x253) ?x235)))
(let ((?x89 9))
(let ((?x556 (+ (+ (* (- 15) |v7:4|) (* ?x46 |v11:0|)) (* (- 20) |v6:5|))))
(let (($x580 (or (and (<= (+ ?x556 |v1:10|) ?x89) $x564) (and (<= (+ ?x570 (* 7 |v1:10|)) ?x341) (<= ?x577 ?x40)))))
(let ((?x65 18))
(let ((?x309 (* ?x235 |v7:4|)))
(let ((?x547 (+ (+ (+ (* ?x24 |v11:0|) (* (- 13) |v2:9|)) (* ?x57 |v8:3|)) ?x309)))
(let ((?x19 (- 10)))
(let ((?x125 8))
(let ((?x407 (* ?x125 |v8:3|)))
(let ((?x541 (+ (+ (+ (* 13 |v3:8|) (* ?x46 |v8:3|)) ?x407) (* (- 2) |v10:1|))))
(let ((?x74 (- 19)))
(let ((?x75 (* ?x74 |v9:2|)))
(let ((?x533 (+ (+ (+ (* 4 |v1:10|) (* 10 |v9:2|)) ?x75) (* 19 |v2:9|))))
(let ((?x524 (+ (+ (* ?x235 |v9:2|) (* (- 4) |v0:11|)) (* 2 |v6:5|))))
(let (($x550 (and (and (<= (+ ?x524 (* (- 9) |v0:11|)) ?x19) (<= ?x533 ?x125)) (and (<= ?x541 ?x19) (<= ?x547 ?x65)))))
(let ((?x129 (- 13)))
(let ((?x10 (- 1)))
(let ((?x11 (* ?x10 |v2:9|)))
(let ((?x517 (+ (+ (+ (* (- 4) |v9:2|) (* 11 |v9:2|)) ?x11) (* 19 |v7:4|))))
(let ((?x202 0))
(let ((?x508 (+ (+ (* ?x24 |v2:9|) (* (- 15) |v3:8|)) (* 11 |v11:0|))))
(let ((?x502 (+ (+ (+ (* ?x74 |v11:0|) (* ?x156 |v5:6|)) (* ?x129 |v5:6|)) (* (- 4) |v3:8|))))
(let ((?x27 3))
(let ((?x494 (+ (+ (+ |v2:9| (* ?x341 |v10:1|)) (* 7 |v10:1|)) (* ?x19 |v7:4|))))
(let (($x520 (or (and (<= ?x494 ?x27) (<= ?x502 ?x65)) (and (<= (+ ?x508 ?x509) ?x202) (<= ?x517 ?x129)))))
(let ((?x207 4))
(let ((?x50 (* ?x40 |v9:2|)))
(let ((?x484 (+ (+ (+ (* 19 |v9:2|) (* ?x40 |v4:7|)) (* ?x202 |v1:10|)) ?x50)))
(let ((?x14 6))
(let ((?x68 (* ?x14 |v2:9|)))
(let (($x478 (<= (+ (+ (+ (* ?x235 |v6:5|) (* ?x57 |v4:7|)) (* ?x112 |v11:0|)) ?x68) ?x235)))
(let ((?x287 (* ?x14 |v8:3|)))
(let (($x471 (<= (+ (+ (+ (* ?x40 |v6:5|) (* ?x10 |v1:10|)) (* ?x112 |v2:9|)) ?x287) ?x24)))
(let ((?x465 (+ (+ (+ (* (- 4) |v1:10|) (* ?x14 |v6:5|)) ?x462) (* ?x24 |v3:8|))))
(let ((?x147 5))
(let ((?x31 19))
(let ((?x333 (* ?x31 |v10:1|)))
(let ((?x455 (+ (+ (+ (* 10 |v0:11|) (* ?x156 |v8:3|)) (* ?x74 |v1:10|)) ?x333)))
(let ((?x194 (- 5)))
(let ((?x402 (* ?x31 |v3:8|)))
(let ((?x449 (+ (+ (* ?x156 |v7:4|) (* (- 2) |v4:7|)) (* 7 |v7:4|))))
(let ((?x175 (- 14)))
(let ((?x439 (* ?x175 |v1:10|)))
(let ((?x442 (+ (+ (+ (* ?x14 |v4:7|) (* 20 |v2:9|)) ?x439) (* ?x156 |v2:9|))))
(let ((?x15 (* ?x14 |v0:11|)))
(let (($x435 (<= (+ (+ (+ (* ?x156 |v6:5|) (* ?x78 |v3:8|)) (* ?x202 |v2:9|)) ?x15) ?x194)))
(let (($x458 (and (and $x435 (<= ?x442 ?x103)) (and (<= (+ ?x449 ?x402) ?x194) (<= ?x455 ?x147)))))
(let (($x488 (and $x458 (and (and (<= ?x465 ?x19) $x471) (and $x478 (<= ?x484 ?x207))))))
(let ((?x81 (- 20)))
(let ((?x169 (* ?x81 |v8:3|)))
(let ((?x426 (+ (+ (+ (* ?x175 |v5:6|) (* ?x207 |v3:8|)) (* 11 |v3:8|)) ?x169)))
(let (($x421 (<= (+ (+ (+ ?x415 (* ?x57 |v5:6|)) ?x402) (* 11 |v3:8|)) ?x228)))
(let ((?x97 20))
(let ((?x58 (* ?x57 |v8:3|)))
(let (($x413 (<= (+ (+ (+ ?x407 (* 14 |v10:1|)) (* ?x27 |v0:11|)) ?x58) ?x97)))
(let (($x414 (and (<= (+ (+ (+ ?x87 (* ?x125 |v6:5|)) ?x402) (* ?x112 |v0:11|)) ?x235) $x413)))
(let ((?x70 (- 16)))
(let ((?x396 (+ (+ (+ (* ?x202 |v0:11|) (* ?x202 |v7:4|)) (* ?x194 |v1:10|)) (* ?x27 |v2:9|))))
(let ((?x161 14))
(let ((?x132 (* ?x31 |v6:5|)))
(let ((?x387 (+ (+ (* (- 9) |v9:2|) (* ?x103 |v4:7|)) (* (- 2) |v7:4|))))
(let (($x381 (<= (+ (+ (+ (* ?x228 |v0:11|) |v8:3|) (* ?x207 |v9:2|)) (* ?x103 |v6:5|)) ?x14)))
(let ((?x375 (+ (+ (+ (* 15 |v11:0|) (* ?x97 |v10:1|)) |v9:2|) (* 13 |v0:11|))))
(let (($x399 (and (and (<= ?x375 ?x19) $x381) (and (<= (+ ?x387 ?x132) ?x161) (<= ?x396 ?x70)))))
(let (($x612 (and (and (and $x399 (and $x414 (and $x421 (<= ?x426 ?x27)))) $x488) (and (and $x520 $x550) (and $x580 $x609)))))
(let ((?x363 (+ (+ (+ (* ?x46 |v5:6|) (* 13 |v1:10|)) (* ?x129 |v11:0|)) ?x75)))
(let ((?x356 (+ (+ (+ (* ?x125 |v4:7|) (* ?x341 |v5:6|)) (* ?x70 |v6:5|)) (* ?x97 |v7:4|))))
(let ((?x52 10))
(let ((?x347 (* ?x156 |v8:3|)))
(let ((?x348 (+ (+ (+ (* ?x341 |v1:10|) (* (- 4) |v2:9|)) (* ?x52 |v3:8|)) ?x347)))
(let ((?x337 (* ?x207 |v9:2|)))
(let ((?x338 (+ (+ (+ (* (- 4) |v7:4|) ?x333) (* (- 4) |v11:0|)) ?x337)))
(let (($x366 (and (and (<= ?x338 ?x202) (<= ?x348 ?x52)) (and (<= ?x356 ?x112) (<= ?x363 ?x175)))))
(let ((?x328 (+ (+ (+ (* 11 |v0:11|) (* ?x202 |v6:5|)) (* ?x57 |v4:7|)) (* ?x112 |v1:10|))))
(let ((?x320 (+ (+ (+ (* ?x161 |v9:2|) (* ?x57 |v3:8|)) (* ?x10 |v8:3|)) (* (- 15) |v6:5|))))
(let ((?x306 (+ (+ (+ (* ?x97 |v8:3|) (* ?x175 |v3:8|)) (* 13 |v6:5|)) (* ?x175 |v6:5|))))
(let (($x314 (or (<= ?x306 ?x175) (<= (+ (+ (+ ?x75 ?x79) ?x309) (* ?x40 |v11:0|)) ?x65))))
(let ((?x62 13))
(let ((?x270 (* ?x14 |v9:2|)))
(let ((?x140 (- 4)))
(let ((?x294 (* ?x140 |v0:11|)))
(let (($x297 (<= (+ (+ (+ (* (- 9) |v10:1|) (* ?x228 |v0:11|)) ?x294) ?x270) ?x62)))
(let (($x290 (<= (+ (+ (+ (* ?x74 |v5:6|) (* (- 15) |v8:3|)) ?x287) |v3:8|) ?x175)))
(let ((?x150 15))
(let ((?x281 (+ (+ (+ (* ?x194 |v2:9|) (* ?x10 |v1:10|)) (* ?x194 |v2:9|)) (* ?x194 |v5:6|))))
(let (($x283 (and (<= (+ (+ (+ ?x260 ?x270) (* ?x161 |v1:10|)) (* ?x147 |v0:11|)) ?x228) (<= ?x281 ?x150))))
(let ((?x266 (+ (+ (+ ?x260 (* ?x52 |v8:3|)) (* ?x57 |v10:1|)) (* 7 |v5:6|))))
(let ((?x35 7))
(let (($x259 (<= (+ (+ (+ (* ?x74 |v8:3|) ?x253) (* ?x150 |v5:6|)) (* ?x19 |v2:9|)) ?x35)))
(let ((?x119 11))
(let ((?x249 (+ (+ (+ (* ?x81 |v0:11|) (* ?x52 |v10:1|)) (* ?x10 |v1:10|)) (* ?x27 |v11:0|))))
(let (($x242 (<= (+ (+ (+ (* ?x235 |v11:0|) (* ?x78 |v3:8|)) (* ?x119 |v8:3|)) ?x79) ?x74)))
(let (($x300 (and (and (and $x242 (<= ?x249 ?x119)) (and $x259 (<= ?x266 ?x125))) (and $x283 (and $x290 $x297)))))
(let (($x368 (and $x300 (and (and $x314 (and (<= ?x320 ?x19) (<= ?x328 ?x81))) $x366))))
(let ((?x227 (+ (+ (+ (* ?x207 |v4:7|) (* (- 9) |v3:8|)) (* ?x65 |v11:0|)) (* ?x14 |v1:10|))))
(let (($x217 (<= (+ (+ (+ (* ?x81 |v2:9|) (* ?x10 |v3:8|)) ?x213) (* ?x52 |v0:11|)) ?x24)))
(let ((?x206 (+ (+ (+ (* ?x89 |v7:4|) (* ?x74 |v6:5|)) (* ?x202 |v2:9|)) (* ?x19 |v10:1|))))
(let ((?x196 (+ (+ (+ (* ?x35 |v8:3|) (* ?x10 |v8:3|)) (* ?x89 |v7:4|)) (* ?x194 |v10:1|))))
(let ((?x184 (+ (+ (+ (* ?x175 |v2:9|) (* ?x70 |v2:9|)) (* ?x125 |v10:1|)) (* (- 15) |v9:2|))))
(let ((?x171 (* ?x78 |v0:11|)))
(let (($x173 (<= (+ (+ (+ (* 2 |v5:6|) (* ?x70 |v11:0|)) ?x169) ?x171) ?x103)))
(let ((?x160 (+ (+ (+ (* ?x24 |v2:9|) (* ?x97 |v6:5|)) (* ?x156 |v3:8|)) (* ?x103 |v5:6|))))
(let ((?x149 (+ (+ (+ (* ?x140 |v5:6|) (* ?x62 |v4:7|)) (* ?x140 |v10:1|)) (* ?x147 |v3:8|))))
(let (($x232 (and (and (and (<= ?x149 ?x150) (<= ?x160 ?x161)) (and $x173 (<= ?x184 ?x147))) (and (and (<= ?x196 ?x10) (<= ?x206 ?x207)) (and $x217 (<= ?x227 ?x228))))))
(let (($x134 (<= (+ (+ (+ (* ?x40 |v6:5|) (* ?x125 |v11:0|)) (* ?x129 |v7:4|)) ?x132) ?x31)))
(let ((?x121 (+ (+ (+ (* ?x112 |v5:6|) (* ?x62 |v6:5|)) (* (- 2) |v2:9|)) (* ?x119 |v6:5|))))
(let ((?x98 (* ?x97 |v6:5|)))
(let (($x100 (<= (+ (+ (+ ?x87 (* ?x89 |v6:5|)) (* (- 2) |v3:8|)) ?x98) ?x97)))
(let (($x109 (and $x100 (<= (+ (+ (+ |v6:5| |v0:11|) (* ?x103 |v10:1|)) (* ?x70 |v0:11|)) ?x19))))
(let (($x83 (and (<= (+ (+ (+ ?x50 (* ?x52 |v1:10|)) ?x58) (* ?x62 |v11:0|)) ?x65) (<= (+ (+ (+ ?x68 (* ?x70 |v6:5|)) ?x75) ?x79) ?x81))))
(let ((?x45 (+ (+ (+ (* ?x31 |v0:11|) (* ?x35 |v10:1|)) (* ?x40 |v1:10|)) (* ?x27 |v6:5|))))
(let (($x48 (and (<= (+ (+ (+ ?x11 ?x15) (* ?x19 |v4:7|)) (* ?x24 |v9:2|)) ?x27) (<= ?x45 ?x46))))
(let (($x233 (and (and (and $x48 $x83) (and $x109 (and (<= ?x121 ?x31) $x134))) $x232)))
(and (and $x233 $x368) $x612))))))))))))))))))))))))))))))))))))))))))))))))))))))))))))))))))))))))))))))))))))))))))))))))))))))))))))))))))))))))))))))))))))))))))))))
)
)
)
)
)
)
)
)
)
)
)
)
(check-sat)
(exit)

